p edge 60 360
e 1 7
e 1 13
e 1 26
e 1 41
e 1 46
e 1 49
e 2 5
e 2 5
e 2 17
e 2 20
e 2 34
e 2 59
e 3 2
e 3 16
e 3 22
e 3 23
e 3 25
e 3 56
e 4 14
e 4 19
e 4 43
e 4 48
e 4 56
e 4 59
e 5 6
e 5 18
e 5 29
e 5 35
e 5 35
e 5 59
e 6 2
e 6 15
e 6 17
e 6 27
e 6 39
e 6 56
e 7 8
e 7 9
e 7 11
e 7 35
e 7 49
e 7 53
e 8 3
e 8 22
e 8 23
e 8 29
e 8 53
e 8 60
e 9 5
e 9 6
e 9 18
e 9 37
e 9 50
e 9 58
e 10 2
e 10 5
e 10 12
e 10 27
e 10 32
e 10 56
e 11 3
e 11 8
e 11 14
e 11 24
e 11 29
e 11 58
e 12 3
e 12 11
e 12 24
e 12 36
e 12 51
e 12 52
e 13 27
e 13 32
e 13 36
e 13 37
e 13 43
e 13 54
e 14 1
e 14 7
e 14 25
e 14 27
e 14 27
e 14 58
e 15 27
e 15 27
e 15 29
e 15 32
e 15 34
e 15 58
e 16 26
e 16 34
e 16 37
e 16 39
e 16 44
e 16 46
e 17 7
e 17 19
e 17 30
e 17 49
e 17 54
e 17 59
e 18 14
e 18 15
e 18 22
e 18 28
e 18 41
e 18 57
e 19 2
e 19 4
e 19 8
e 19 23
e 19 24
e 19 41
e 20 12
e 20 13
e 20 24
e 20 30
e 20 35
e 20 53
e 21 8
e 21 27
e 21 41
e 21 51
e 21 55
e 21 59
e 22 5
e 22 11
e 22 32
e 22 44
e 22 49
e 22 59
e 23 14
e 23 16
e 23 22
e 23 26
e 23 43
e 23 48
e 24 10
e 24 16
e 24 36
e 24 44
e 24 49
e 24 55
e 25 12
e 25 19
e 25 34
e 25 38
e 25 46
e 25 49
e 26 5
e 26 9
e 26 19
e 26 23
e 26 31
e 26 48
e 27 9
e 27 11
e 27 13
e 27 13
e 27 16
e 27 52
e 28 4
e 28 8
e 28 11
e 28 29
e 28 29
e 28 42
e 29 4
e 29 10
e 29 17
e 29 28
e 29 44
e 29 54
e 30 5
e 30 6
e 30 16
e 30 16
e 30 28
e 30 29
e 31 12
e 31 24
e 31 25
e 31 32
e 31 34
e 31 55
e 32 16
e 32 28
e 32 31
e 32 34
e 32 40
e 32 47
e 33 7
e 33 9
e 33 49
e 33 51
e 33 54
e 33 60
e 34 3
e 34 38
e 34 43
e 34 52
e 34 57
e 34 60
e 35 1
e 35 16
e 35 27
e 35 31
e 35 37
e 35 60
e 36 20
e 36 21
e 36 24
e 36 34
e 36 45
e 36 52
e 37 5
e 37 12
e 37 19
e 37 31
e 37 45
e 37 53
e 38 29
e 38 43
e 38 43
e 38 44
e 38 45
e 38 54
e 39 2
e 39 6
e 39 19
e 39 36
e 39 48
e 39 49
e 40 2
e 40 9
e 40 10
e 40 13
e 40 29
e 40 43
e 41 2
e 41 13
e 41 22
e 41 28
e 41 33
e 41 48
e 42 2
e 42 10
e 42 18
e 42 27
e 42 31
e 42 59
e 43 11
e 43 12
e 43 19
e 43 44
e 43 45
e 43 56
e 44 7
e 44 9
e 44 10
e 44 23
e 44 41
e 44 47
e 45 3
e 45 11
e 45 12
e 45 29
e 45 33
e 45 43
e 46 4
e 46 14
e 46 18
e 46 31
e 46 35
e 46 38
e 47 5
e 47 8
e 47 9
e 47 23
e 47 25
e 47 34
e 48 4
e 48 18
e 48 21
e 48 26
e 48 35
e 48 46
e 49 3
e 49 16
e 49 22
e 49 30
e 49 41
e 49 44
e 50 1
e 50 32
e 50 33
e 50 34
e 50 58
e 50 60
e 51 4
e 51 13
e 51 15
e 51 37
e 51 38
e 51 60
e 52 20
e 52 20
e 52 31
e 52 31
e 52 34
e 52 56
e 53 1
e 53 5
e 53 18
e 53 30
e 53 31
e 53 40
e 54 1
e 54 6
e 54 13
e 54 22
e 54 35
e 54 55
e 55 2
e 55 3
e 55 19
e 55 35
e 55 53
e 55 59
e 56 9
e 56 37
e 56 43
e 56 46
e 56 55
e 56 57
e 57 1
e 57 6
e 57 20
e 57 28
e 57 40
e 57 50
e 58 23
e 58 36
e 58 42
e 58 44
e 58 52
e 58 54
e 59 7
e 59 14
e 59 19
e 59 30
e 59 54
e 59 56
e 60 10
e 60 25
e 60 27
e 60 29
e 60 30
e 60 31
